# Executing instances/MDG-a/MDG-a_34_n2000_m200.txt|none|1

==================== CONFIGURAÇÃO DO SOLVER ====================
[MDPModel] Instance: MDG-a_34_n2000_m200
[MDPModel] Configuração: none
[MDPModel] Execução: 1
[MDPModel] n=2000, m=200
[MDPModel] ✓ Configurações de preservação de estratégias aplicadas
Version identifier: 22.1.1.0 | 2022-11-28 | 9160aff4d
CPXPARAM_ClockType                               1
CPXPARAM_Threads                                 1
CPXPARAM_MIP_Strategy_File                       3
CPXPARAM_TimeLimit                               600
CPXPARAM_WorkMem                                 0
CPXPARAM_MIP_Tolerances_Integrality              1.0000000000000001e-09
CPXPARAM_WorkDir                                 "/tmp/cplex_workdir_1755488000468844865"
Tried aggregator 1 time.
MIP Presolve eliminated 3998000 rows and 4000001 columns.
MIP Presolve modified 1779 coefficients.
Reduced MIP has 3999 rows, 3999 columns, and 1824887 nonzeros.
Reduced MIP has 2000 binaries, 0 generals, 0 SOSs, and 0 indicators.
Presolve time = 6.10 sec. (3452.36 ticks)
Found incumbent of value 0.000000 after 7.27 sec. (3925.63 ticks)
Probing time = 0.03 sec. (17.29 ticks)
Tried aggregator 1 time.
Detecting symmetries...
Reduced MIP has 3999 rows, 3999 columns, and 1824887 nonzeros.
Reduced MIP has 2000 binaries, 1999 generals, 0 SOSs, and 0 indicators.
Presolve time = 1.60 sec. (647.86 ticks)
Probing time = 0.02 sec. (17.24 ticks)
MIP emphasis: balance optimality and feasibility.
MIP search method: dynamic search.
Parallel mode: none, using 1 thread.
Root relaxation solution time = 69.73 sec. (51240.23 ticks)

        Nodes                                         Cuts/
   Node  Left     Objective  IInf  Best Integer    Best Bound    ItCnt     Gap

*     0+    0                            0.0000  3355158.0000              --- 
      0     0   385831.0051  3965        0.0000   385831.0051     9209     --- 
      0     0   385809.5105  3981        0.0000     Cuts: 231     9294     --- 
      0     0   385785.3653  3997        0.0000     Cuts: 110     9367     --- 
Heuristic still looking.
Heuristic still looking.
Heuristic still looking.
Detecting symmetries...
      0     2   385785.3653  3997        0.0000   385765.3377     9367     --- 
Elapsed time = 430.17 sec. (441180.46 ticks, tree = 0.01 MB, solutions = 1)
      2     4   384529.7910  3996        0.0000   385742.4143     9376     --- 
      3     5   385742.4143  3993        0.0000   385726.6044     9377     --- 
      4     6   384509.3335  3994        0.0000   385726.6044     9410     --- 
      5     7   385726.6044  3991        0.0000   385712.5315     9411     --- 
      7     9   385693.6785  3987        0.0000   385670.7016     9413     --- 
      8    10   384455.8692  3986        0.0000   385670.7016     9504     --- 
      9    11   385670.7016  3985        0.0000   385648.3912     9505     --- 
     10    12   384450.4705  3984        0.0000   385648.3912     9540     --- 
     11    13   385648.3912  3983        0.0000   385636.9375     9541     --- 
Began writing nodes to disk (directory /tmp/cplex_workdir_1755488000468844865/cpxo5BPJe created)
     12    14   384414.1135  3984        0.0000   385636.9375     9595     --- 
Elapsed time = 500.49 sec. (567335.90 ticks, tree = 0.09 MB, solutions = 1)
Nodefile size = 0.03 MB (0.03 MB after compression)
     13    15   385636.9375  3981        0.0000   385618.8207     9596     --- 
     16    18   384361.0688  3978        0.0000   385613.6208     9777     --- 
     17    19   385575.7243  3975        0.0000   385613.6208     9778     --- 
     19    21   384317.8184  3970        0.0000   385613.6208     9844     --- 
     20    22   385526.8556  3971        0.0000   385613.6208     9845     --- 
     21    23   384297.9022  3972        0.0000   385613.6208     9943     --- 
     22    24   385500.0765  3969        0.0000   385613.6208     9944     --- 
     23    25   384271.6812  3968        0.0000   385613.6208     9968     --- 
     24    26   385483.2165  3967        0.0000   385613.6208     9969     --- 
     26    28   384230.8778  3966        0.0000   385613.6208    10011     --- 
Elapsed time = 580.55 sec. (716149.61 ticks, tree = 0.11 MB, solutions = 1)
Nodefile size = 0.06 MB (0.04 MB after compression)
     27    29   385443.8967  3963        0.0000   385613.6208    10012     --- 
Advanced basis not built.

Mixed integer rounding cuts applied:  43
Gomory fractional cuts applied:  2

Root node processing (before b&c):
  Real time             =  430.47 sec. (441196.64 ticks)
Sequential b&c:
  Real time             =  170.43 sec. (309867.09 ticks)
                          ------------
Total (root+branch&cut) =  600.90 sec. (751063.73 ticks)
----- END ----
LB     : 385613
UB     : 0
NODES  : 30
GAP OPT (%)  : 0.00%
------------------
INSTANCE_NAME      : MDG-a_34_n2000_m200
N_VALUE            : 2000
M_VALUE            : 200
CONFIG_VALUE       : none
EXEC_NUMBER        : 1
TIME               : 608.11
IS_SOLVED          : 1
HEURISTIC_SOLUTION : 113762
SOLUTION           : 0
HEURISTIC GAP (%)  : -0.40%
------------------
SOLUTION ELEMENTS: 0 1 2 3 4 5 6 7 8 9 10 11 12 13 14 15 16 17 18 19 20 21 22 23 24 25 26 27 28 29 30 31 32 33 34 35 36 37 38 39 40 41 42 43 44 45 46 47 48 49 50 51 52 53 54 55 56 57 58 59 60 61 62 63 64 65 66 67 68 69 70 71 72 73 74 75 76 77 78 79 80 81 82 83 84 85 86 87 88 89 90 91 92 93 94 95 96 97 98 99 100 101 102 103 104 105 106 107 108 109 110 111 112 113 114 115 116 117 118 119 120 121 122 123 124 125 126 127 128 129 130 131 132 133 134 135 136 137 138 139 140 141 142 143 144 145 146 147 148 149 150 151 152 153 154 155 156 157 158 159 160 161 162 163 164 165 166 167 168 169 170 171 172 173 174 175 176 177 178 179 180 181 182 183 184 185 186 187 188 189 190 191 192 193 194 195 196 197 198 199 
